c File: flat200_3_0.col
c
c SOURCE: Joseph Culberson (joe@cs.ualberta.ca)
c DESCRIPTION: Quasi-random coloring problem
c              generated with flatness = 0
c                             probability = 0.036
c                             known coloring = 3
c                             random seed = 1030
c              Creation Date:  Wed Feb 24 10:39:45 1999
c Maximum degree = 8 Minimum degree = 1
c COLOR VERIFICATION: Using the permuted order
c under simple greedy yields the specified
c coloring number
c Color = 3 specified partitions = 3
c p edge 200 479
c cnf created by edge2cnf
p cnf 600 2237
-1 -2 0
-1 -3 0
-2 -3 0
1 2 3 0
-4 -5 0
-4 -6 0
-5 -6 0
4 5 6 0
-7 -8 0
-7 -9 0
-8 -9 0
7 8 9 0
-10 -11 0
-10 -12 0
-11 -12 0
10 11 12 0
-13 -14 0
-13 -15 0
-14 -15 0
13 14 15 0
-16 -17 0
-16 -18 0
-17 -18 0
16 17 18 0
-19 -20 0
-19 -21 0
-20 -21 0
19 20 21 0
-22 -23 0
-22 -24 0
-23 -24 0
22 23 24 0
-25 -26 0
-25 -27 0
-26 -27 0
25 26 27 0
-28 -29 0
-28 -30 0
-29 -30 0
28 29 30 0
-31 -32 0
-31 -33 0
-32 -33 0
31 32 33 0
-34 -35 0
-34 -36 0
-35 -36 0
34 35 36 0
-37 -38 0
-37 -39 0
-38 -39 0
37 38 39 0
-40 -41 0
-40 -42 0
-41 -42 0
40 41 42 0
-43 -44 0
-43 -45 0
-44 -45 0
43 44 45 0
-46 -47 0
-46 -48 0
-47 -48 0
46 47 48 0
-49 -50 0
-49 -51 0
-50 -51 0
49 50 51 0
-52 -53 0
-52 -54 0
-53 -54 0
52 53 54 0
-55 -56 0
-55 -57 0
-56 -57 0
55 56 57 0
-58 -59 0
-58 -60 0
-59 -60 0
58 59 60 0
-61 -62 0
-61 -63 0
-62 -63 0
61 62 63 0
-64 -65 0
-64 -66 0
-65 -66 0
64 65 66 0
-67 -68 0
-67 -69 0
-68 -69 0
67 68 69 0
-70 -71 0
-70 -72 0
-71 -72 0
70 71 72 0
-73 -74 0
-73 -75 0
-74 -75 0
73 74 75 0
-76 -77 0
-76 -78 0
-77 -78 0
76 77 78 0
-79 -80 0
-79 -81 0
-80 -81 0
79 80 81 0
-82 -83 0
-82 -84 0
-83 -84 0
82 83 84 0
-85 -86 0
-85 -87 0
-86 -87 0
85 86 87 0
-88 -89 0
-88 -90 0
-89 -90 0
88 89 90 0
-91 -92 0
-91 -93 0
-92 -93 0
91 92 93 0
-94 -95 0
-94 -96 0
-95 -96 0
94 95 96 0
-97 -98 0
-97 -99 0
-98 -99 0
97 98 99 0
-100 -101 0
-100 -102 0
-101 -102 0
100 101 102 0
-103 -104 0
-103 -105 0
-104 -105 0
103 104 105 0
-106 -107 0
-106 -108 0
-107 -108 0
106 107 108 0
-109 -110 0
-109 -111 0
-110 -111 0
109 110 111 0
-112 -113 0
-112 -114 0
-113 -114 0
112 113 114 0
-115 -116 0
-115 -117 0
-116 -117 0
115 116 117 0
-118 -119 0
-118 -120 0
-119 -120 0
118 119 120 0
-121 -122 0
-121 -123 0
-122 -123 0
121 122 123 0
-124 -125 0
-124 -126 0
-125 -126 0
124 125 126 0
-127 -128 0
-127 -129 0
-128 -129 0
127 128 129 0
-130 -131 0
-130 -132 0
-131 -132 0
130 131 132 0
-133 -134 0
-133 -135 0
-134 -135 0
133 134 135 0
-136 -137 0
-136 -138 0
-137 -138 0
136 137 138 0
-139 -140 0
-139 -141 0
-140 -141 0
139 140 141 0
-142 -143 0
-142 -144 0
-143 -144 0
142 143 144 0
-145 -146 0
-145 -147 0
-146 -147 0
145 146 147 0
-148 -149 0
-148 -150 0
-149 -150 0
148 149 150 0
-151 -152 0
-151 -153 0
-152 -153 0
151 152 153 0
-154 -155 0
-154 -156 0
-155 -156 0
154 155 156 0
-157 -158 0
-157 -159 0
-158 -159 0
157 158 159 0
-160 -161 0
-160 -162 0
-161 -162 0
160 161 162 0
-163 -164 0
-163 -165 0
-164 -165 0
163 164 165 0
-166 -167 0
-166 -168 0
-167 -168 0
166 167 168 0
-169 -170 0
-169 -171 0
-170 -171 0
169 170 171 0
-172 -173 0
-172 -174 0
-173 -174 0
172 173 174 0
-175 -176 0
-175 -177 0
-176 -177 0
175 176 177 0
-178 -179 0
-178 -180 0
-179 -180 0
178 179 180 0
-181 -182 0
-181 -183 0
-182 -183 0
181 182 183 0
-184 -185 0
-184 -186 0
-185 -186 0
184 185 186 0
-187 -188 0
-187 -189 0
-188 -189 0
187 188 189 0
-190 -191 0
-190 -192 0
-191 -192 0
190 191 192 0
-193 -194 0
-193 -195 0
-194 -195 0
193 194 195 0
-196 -197 0
-196 -198 0
-197 -198 0
196 197 198 0
-199 -200 0
-199 -201 0
-200 -201 0
199 200 201 0
-202 -203 0
-202 -204 0
-203 -204 0
202 203 204 0
-205 -206 0
-205 -207 0
-206 -207 0
205 206 207 0
-208 -209 0
-208 -210 0
-209 -210 0
208 209 210 0
-211 -212 0
-211 -213 0
-212 -213 0
211 212 213 0
-214 -215 0
-214 -216 0
-215 -216 0
214 215 216 0
-217 -218 0
-217 -219 0
-218 -219 0
217 218 219 0
-220 -221 0
-220 -222 0
-221 -222 0
220 221 222 0
-223 -224 0
-223 -225 0
-224 -225 0
223 224 225 0
-226 -227 0
-226 -228 0
-227 -228 0
226 227 228 0
-229 -230 0
-229 -231 0
-230 -231 0
229 230 231 0
-232 -233 0
-232 -234 0
-233 -234 0
232 233 234 0
-235 -236 0
-235 -237 0
-236 -237 0
235 236 237 0
-238 -239 0
-238 -240 0
-239 -240 0
238 239 240 0
-241 -242 0
-241 -243 0
-242 -243 0
241 242 243 0
-244 -245 0
-244 -246 0
-245 -246 0
244 245 246 0
-247 -248 0
-247 -249 0
-248 -249 0
247 248 249 0
-250 -251 0
-250 -252 0
-251 -252 0
250 251 252 0
-253 -254 0
-253 -255 0
-254 -255 0
253 254 255 0
-256 -257 0
-256 -258 0
-257 -258 0
256 257 258 0
-259 -260 0
-259 -261 0
-260 -261 0
259 260 261 0
-262 -263 0
-262 -264 0
-263 -264 0
262 263 264 0
-265 -266 0
-265 -267 0
-266 -267 0
265 266 267 0
-268 -269 0
-268 -270 0
-269 -270 0
268 269 270 0
-271 -272 0
-271 -273 0
-272 -273 0
271 272 273 0
-274 -275 0
-274 -276 0
-275 -276 0
274 275 276 0
-277 -278 0
-277 -279 0
-278 -279 0
277 278 279 0
-280 -281 0
-280 -282 0
-281 -282 0
280 281 282 0
-283 -284 0
-283 -285 0
-284 -285 0
283 284 285 0
-286 -287 0
-286 -288 0
-287 -288 0
286 287 288 0
-289 -290 0
-289 -291 0
-290 -291 0
289 290 291 0
-292 -293 0
-292 -294 0
-293 -294 0
292 293 294 0
-295 -296 0
-295 -297 0
-296 -297 0
295 296 297 0
-298 -299 0
-298 -300 0
-299 -300 0
298 299 300 0
-301 -302 0
-301 -303 0
-302 -303 0
301 302 303 0
-304 -305 0
-304 -306 0
-305 -306 0
304 305 306 0
-307 -308 0
-307 -309 0
-308 -309 0
307 308 309 0
-310 -311 0
-310 -312 0
-311 -312 0
310 311 312 0
-313 -314 0
-313 -315 0
-314 -315 0
313 314 315 0
-316 -317 0
-316 -318 0
-317 -318 0
316 317 318 0
-319 -320 0
-319 -321 0
-320 -321 0
319 320 321 0
-322 -323 0
-322 -324 0
-323 -324 0
322 323 324 0
-325 -326 0
-325 -327 0
-326 -327 0
325 326 327 0
-328 -329 0
-328 -330 0
-329 -330 0
328 329 330 0
-331 -332 0
-331 -333 0
-332 -333 0
331 332 333 0
-334 -335 0
-334 -336 0
-335 -336 0
334 335 336 0
-337 -338 0
-337 -339 0
-338 -339 0
337 338 339 0
-340 -341 0
-340 -342 0
-341 -342 0
340 341 342 0
-343 -344 0
-343 -345 0
-344 -345 0
343 344 345 0
-346 -347 0
-346 -348 0
-347 -348 0
346 347 348 0
-349 -350 0
-349 -351 0
-350 -351 0
349 350 351 0
-352 -353 0
-352 -354 0
-353 -354 0
352 353 354 0
-355 -356 0
-355 -357 0
-356 -357 0
355 356 357 0
-358 -359 0
-358 -360 0
-359 -360 0
358 359 360 0
-361 -362 0
-361 -363 0
-362 -363 0
361 362 363 0
-364 -365 0
-364 -366 0
-365 -366 0
364 365 366 0
-367 -368 0
-367 -369 0
-368 -369 0
367 368 369 0
-370 -371 0
-370 -372 0
-371 -372 0
370 371 372 0
-373 -374 0
-373 -375 0
-374 -375 0
373 374 375 0
-376 -377 0
-376 -378 0
-377 -378 0
376 377 378 0
-379 -380 0
-379 -381 0
-380 -381 0
379 380 381 0
-382 -383 0
-382 -384 0
-383 -384 0
382 383 384 0
-385 -386 0
-385 -387 0
-386 -387 0
385 386 387 0
-388 -389 0
-388 -390 0
-389 -390 0
388 389 390 0
-391 -392 0
-391 -393 0
-392 -393 0
391 392 393 0
-394 -395 0
-394 -396 0
-395 -396 0
394 395 396 0
-397 -398 0
-397 -399 0
-398 -399 0
397 398 399 0
-400 -401 0
-400 -402 0
-401 -402 0
400 401 402 0
-403 -404 0
-403 -405 0
-404 -405 0
403 404 405 0
-406 -407 0
-406 -408 0
-407 -408 0
406 407 408 0
-409 -410 0
-409 -411 0
-410 -411 0
409 410 411 0
-412 -413 0
-412 -414 0
-413 -414 0
412 413 414 0
-415 -416 0
-415 -417 0
-416 -417 0
415 416 417 0
-418 -419 0
-418 -420 0
-419 -420 0
418 419 420 0
-421 -422 0
-421 -423 0
-422 -423 0
421 422 423 0
-424 -425 0
-424 -426 0
-425 -426 0
424 425 426 0
-427 -428 0
-427 -429 0
-428 -429 0
427 428 429 0
-430 -431 0
-430 -432 0
-431 -432 0
430 431 432 0
-433 -434 0
-433 -435 0
-434 -435 0
433 434 435 0
-436 -437 0
-436 -438 0
-437 -438 0
436 437 438 0
-439 -440 0
-439 -441 0
-440 -441 0
439 440 441 0
-442 -443 0
-442 -444 0
-443 -444 0
442 443 444 0
-445 -446 0
-445 -447 0
-446 -447 0
445 446 447 0
-448 -449 0
-448 -450 0
-449 -450 0
448 449 450 0
-451 -452 0
-451 -453 0
-452 -453 0
451 452 453 0
-454 -455 0
-454 -456 0
-455 -456 0
454 455 456 0
-457 -458 0
-457 -459 0
-458 -459 0
457 458 459 0
-460 -461 0
-460 -462 0
-461 -462 0
460 461 462 0
-463 -464 0
-463 -465 0
-464 -465 0
463 464 465 0
-466 -467 0
-466 -468 0
-467 -468 0
466 467 468 0
-469 -470 0
-469 -471 0
-470 -471 0
469 470 471 0
-472 -473 0
-472 -474 0
-473 -474 0
472 473 474 0
-475 -476 0
-475 -477 0
-476 -477 0
475 476 477 0
-478 -479 0
-478 -480 0
-479 -480 0
478 479 480 0
-481 -482 0
-481 -483 0
-482 -483 0
481 482 483 0
-484 -485 0
-484 -486 0
-485 -486 0
484 485 486 0
-487 -488 0
-487 -489 0
-488 -489 0
487 488 489 0
-490 -491 0
-490 -492 0
-491 -492 0
490 491 492 0
-493 -494 0
-493 -495 0
-494 -495 0
493 494 495 0
-496 -497 0
-496 -498 0
-497 -498 0
496 497 498 0
-499 -500 0
-499 -501 0
-500 -501 0
499 500 501 0
-502 -503 0
-502 -504 0
-503 -504 0
502 503 504 0
-505 -506 0
-505 -507 0
-506 -507 0
505 506 507 0
-508 -509 0
-508 -510 0
-509 -510 0
508 509 510 0
-511 -512 0
-511 -513 0
-512 -513 0
511 512 513 0
-514 -515 0
-514 -516 0
-515 -516 0
514 515 516 0
-517 -518 0
-517 -519 0
-518 -519 0
517 518 519 0
-520 -521 0
-520 -522 0
-521 -522 0
520 521 522 0
-523 -524 0
-523 -525 0
-524 -525 0
523 524 525 0
-526 -527 0
-526 -528 0
-527 -528 0
526 527 528 0
-529 -530 0
-529 -531 0
-530 -531 0
529 530 531 0
-532 -533 0
-532 -534 0
-533 -534 0
532 533 534 0
-535 -536 0
-535 -537 0
-536 -537 0
535 536 537 0
-538 -539 0
-538 -540 0
-539 -540 0
538 539 540 0
-541 -542 0
-541 -543 0
-542 -543 0
541 542 543 0
-544 -545 0
-544 -546 0
-545 -546 0
544 545 546 0
-547 -548 0
-547 -549 0
-548 -549 0
547 548 549 0
-550 -551 0
-550 -552 0
-551 -552 0
550 551 552 0
-553 -554 0
-553 -555 0
-554 -555 0
553 554 555 0
-556 -557 0
-556 -558 0
-557 -558 0
556 557 558 0
-559 -560 0
-559 -561 0
-560 -561 0
559 560 561 0
-562 -563 0
-562 -564 0
-563 -564 0
562 563 564 0
-565 -566 0
-565 -567 0
-566 -567 0
565 566 567 0
-568 -569 0
-568 -570 0
-569 -570 0
568 569 570 0
-571 -572 0
-571 -573 0
-572 -573 0
571 572 573 0
-574 -575 0
-574 -576 0
-575 -576 0
574 575 576 0
-577 -578 0
-577 -579 0
-578 -579 0
577 578 579 0
-580 -581 0
-580 -582 0
-581 -582 0
580 581 582 0
-583 -584 0
-583 -585 0
-584 -585 0
583 584 585 0
-586 -587 0
-586 -588 0
-587 -588 0
586 587 588 0
-589 -590 0
-589 -591 0
-590 -591 0
589 590 591 0
-592 -593 0
-592 -594 0
-593 -594 0
592 593 594 0
-595 -596 0
-595 -597 0
-596 -597 0
595 596 597 0
-598 -599 0
-598 -600 0
-599 -600 0
598 599 600 0
-163 -1 0
-164 -2 0
-165 -3 0
-265 -1 0
-266 -2 0
-267 -3 0
-268 -1 0
-269 -2 0
-270 -3 0
-313 -1 0
-314 -2 0
-315 -3 0
-349 -1 0
-350 -2 0
-351 -3 0
-7 -4 0
-8 -5 0
-9 -6 0
-67 -4 0
-68 -5 0
-69 -6 0
-112 -4 0
-113 -5 0
-114 -6 0
-124 -4 0
-125 -5 0
-126 -6 0
-349 -4 0
-350 -5 0
-351 -6 0
-460 -4 0
-461 -5 0
-462 -6 0
-142 -7 0
-143 -8 0
-144 -9 0
-151 -7 0
-152 -8 0
-153 -9 0
-247 -7 0
-248 -8 0
-249 -9 0
-451 -7 0
-452 -8 0
-453 -9 0
-547 -7 0
-548 -8 0
-549 -9 0
-565 -7 0
-566 -8 0
-567 -9 0
-595 -7 0
-596 -8 0
-597 -9 0
-130 -10 0
-131 -11 0
-132 -12 0
-136 -10 0
-137 -11 0
-138 -12 0
-313 -10 0
-314 -11 0
-315 -12 0
-379 -10 0
-380 -11 0
-381 -12 0
-394 -10 0
-395 -11 0
-396 -12 0
-442 -10 0
-443 -11 0
-444 -12 0
-31 -13 0
-32 -14 0
-33 -15 0
-154 -13 0
-155 -14 0
-156 -15 0
-424 -13 0
-425 -14 0
-426 -15 0
-589 -13 0
-590 -14 0
-591 -15 0
-31 -16 0
-32 -17 0
-33 -18 0
-49 -16 0
-50 -17 0
-51 -18 0
-55 -16 0
-56 -17 0
-57 -18 0
-148 -16 0
-149 -17 0
-150 -18 0
-265 -16 0
-266 -17 0
-267 -18 0
-478 -16 0
-479 -17 0
-480 -18 0
-214 -19 0
-215 -20 0
-216 -21 0
-385 -19 0
-386 -20 0
-387 -21 0
-487 -19 0
-488 -20 0
-489 -21 0
-541 -19 0
-542 -20 0
-543 -21 0
-553 -19 0
-554 -20 0
-555 -21 0
-586 -19 0
-587 -20 0
-588 -21 0
-64 -22 0
-65 -23 0
-66 -24 0
-109 -22 0
-110 -23 0
-111 -24 0
-571 -22 0
-572 -23 0
-573 -24 0
-202 -25 0
-203 -26 0
-204 -27 0
-235 -25 0
-236 -26 0
-237 -27 0
-58 -28 0
-59 -29 0
-60 -30 0
-82 -28 0
-83 -29 0
-84 -30 0
-85 -28 0
-86 -29 0
-87 -30 0
-169 -28 0
-170 -29 0
-171 -30 0
-259 -28 0
-260 -29 0
-261 -30 0
-217 -31 0
-218 -32 0
-219 -33 0
-241 -31 0
-242 -32 0
-243 -33 0
-505 -31 0
-506 -32 0
-507 -33 0
-589 -31 0
-590 -32 0
-591 -33 0
-58 -34 0
-59 -35 0
-60 -36 0
-145 -34 0
-146 -35 0
-147 -36 0
-247 -34 0
-248 -35 0
-249 -36 0
-298 -34 0
-299 -35 0
-300 -36 0
-337 -34 0
-338 -35 0
-339 -36 0
-91 -37 0
-92 -38 0
-93 -39 0
-136 -37 0
-137 -38 0
-138 -39 0
-172 -37 0
-173 -38 0
-174 -39 0
-583 -37 0
-584 -38 0
-585 -39 0
-73 -40 0
-74 -41 0
-75 -42 0
-82 -40 0
-83 -41 0
-84 -42 0
-142 -40 0
-143 -41 0
-144 -42 0
-199 -40 0
-200 -41 0
-201 -42 0
-334 -40 0
-335 -41 0
-336 -42 0
-346 -40 0
-347 -41 0
-348 -42 0
-412 -40 0
-413 -41 0
-414 -42 0
-313 -43 0
-314 -44 0
-315 -45 0
-448 -43 0
-449 -44 0
-450 -45 0
-508 -43 0
-509 -44 0
-510 -45 0
-244 -46 0
-245 -47 0
-246 -48 0
-370 -46 0
-371 -47 0
-372 -48 0
-436 -46 0
-437 -47 0
-438 -48 0
-187 -49 0
-188 -50 0
-189 -51 0
-208 -49 0
-209 -50 0
-210 -51 0
-340 -49 0
-341 -50 0
-342 -51 0
-361 -49 0
-362 -50 0
-363 -51 0
-103 -52 0
-104 -53 0
-105 -54 0
-202 -52 0
-203 -53 0
-204 -54 0
-85 -55 0
-86 -56 0
-87 -57 0
-142 -55 0
-143 -56 0
-144 -57 0
-298 -55 0
-299 -56 0
-300 -57 0
-406 -55 0
-407 -56 0
-408 -57 0
-469 -55 0
-470 -56 0
-471 -57 0
-499 -55 0
-500 -56 0
-501 -57 0
-595 -55 0
-596 -56 0
-597 -57 0
-91 -58 0
-92 -59 0
-93 -60 0
-202 -58 0
-203 -59 0
-204 -60 0
-289 -58 0
-290 -59 0
-291 -60 0
-298 -58 0
-299 -59 0
-300 -60 0
-517 -58 0
-518 -59 0
-519 -60 0
-544 -58 0
-545 -59 0
-546 -60 0
-88 -61 0
-89 -62 0
-90 -63 0
-97 -61 0
-98 -62 0
-99 -63 0
-109 -61 0
-110 -62 0
-111 -63 0
-268 -61 0
-269 -62 0
-270 -63 0
-322 -61 0
-323 -62 0
-324 -63 0
-256 -64 0
-257 -65 0
-258 -66 0
-406 -64 0
-407 -65 0
-408 -66 0
-160 -67 0
-161 -68 0
-162 -69 0
-211 -67 0
-212 -68 0
-213 -69 0
-379 -67 0
-380 -68 0
-381 -69 0
-394 -67 0
-395 -68 0
-396 -69 0
-166 -70 0
-167 -71 0
-168 -72 0
-268 -70 0
-269 -71 0
-270 -72 0
-304 -70 0
-305 -71 0
-306 -72 0
-517 -70 0
-518 -71 0
-519 -72 0
-85 -73 0
-86 -74 0
-87 -75 0
-169 -73 0
-170 -74 0
-171 -75 0
-241 -73 0
-242 -74 0
-243 -75 0
-316 -73 0
-317 -74 0
-318 -75 0
-403 -73 0
-404 -74 0
-405 -75 0
-85 -76 0
-86 -77 0
-87 -78 0
-121 -76 0
-122 -77 0
-123 -78 0
-304 -76 0
-305 -77 0
-306 -78 0
-394 -76 0
-395 -77 0
-396 -78 0
-460 -76 0
-461 -77 0
-462 -78 0
-469 -76 0
-470 -77 0
-471 -78 0
-550 -76 0
-551 -77 0
-552 -78 0
-196 -79 0
-197 -80 0
-198 -81 0
-226 -79 0
-227 -80 0
-228 -81 0
-580 -79 0
-581 -80 0
-582 -81 0
-253 -82 0
-254 -83 0
-255 -84 0
-289 -82 0
-290 -83 0
-291 -84 0
-310 -82 0
-311 -83 0
-312 -84 0
-331 -82 0
-332 -83 0
-333 -84 0
-385 -82 0
-386 -83 0
-387 -84 0
-154 -85 0
-155 -86 0
-156 -87 0
-178 -85 0
-179 -86 0
-180 -87 0
-544 -85 0
-545 -86 0
-546 -87 0
-241 -88 0
-242 -89 0
-243 -90 0
-256 -88 0
-257 -89 0
-258 -90 0
-280 -88 0
-281 -89 0
-282 -90 0
-517 -88 0
-518 -89 0
-519 -90 0
-94 -91 0
-95 -92 0
-96 -93 0
-145 -91 0
-146 -92 0
-147 -93 0
-472 -91 0
-473 -92 0
-474 -93 0
-250 -94 0
-251 -95 0
-252 -96 0
-280 -97 0
-281 -98 0
-282 -99 0
-448 -97 0
-449 -98 0
-450 -99 0
-487 -97 0
-488 -98 0
-489 -99 0
-541 -97 0
-542 -98 0
-543 -99 0
-154 -100 0
-155 -101 0
-156 -102 0
-313 -100 0
-314 -101 0
-315 -102 0
-325 -100 0
-326 -101 0
-327 -102 0
-484 -100 0
-485 -101 0
-486 -102 0
-499 -100 0
-500 -101 0
-501 -102 0
-532 -100 0
-533 -101 0
-534 -102 0
-124 -103 0
-125 -104 0
-126 -105 0
-361 -103 0
-362 -104 0
-363 -105 0
-451 -103 0
-452 -104 0
-453 -105 0
-478 -103 0
-479 -104 0
-480 -105 0
-274 -106 0
-275 -107 0
-276 -108 0
-286 -106 0
-287 -107 0
-288 -108 0
-319 -106 0
-320 -107 0
-321 -108 0
-499 -106 0
-500 -107 0
-501 -108 0
-325 -109 0
-326 -110 0
-327 -111 0
-229 -112 0
-230 -113 0
-231 -114 0
-418 -112 0
-419 -113 0
-420 -114 0
-445 -112 0
-446 -113 0
-447 -114 0
-466 -112 0
-467 -113 0
-468 -114 0
-511 -112 0
-512 -113 0
-513 -114 0
-544 -112 0
-545 -113 0
-546 -114 0
-133 -115 0
-134 -116 0
-135 -117 0
-253 -115 0
-254 -116 0
-255 -117 0
-493 -115 0
-494 -116 0
-495 -117 0
-508 -115 0
-509 -116 0
-510 -117 0
-547 -115 0
-548 -116 0
-549 -117 0
-142 -118 0
-143 -119 0
-144 -120 0
-229 -118 0
-230 -119 0
-231 -120 0
-355 -118 0
-356 -119 0
-357 -120 0
-379 -118 0
-380 -119 0
-381 -120 0
-523 -118 0
-524 -119 0
-525 -120 0
-154 -121 0
-155 -122 0
-156 -123 0
-175 -121 0
-176 -122 0
-177 -123 0
-142 -124 0
-143 -125 0
-144 -126 0
-265 -124 0
-266 -125 0
-267 -126 0
-316 -124 0
-317 -125 0
-318 -126 0
-406 -124 0
-407 -125 0
-408 -126 0
-268 -127 0
-269 -128 0
-270 -129 0
-277 -127 0
-278 -128 0
-279 -129 0
-484 -127 0
-485 -128 0
-486 -129 0
-235 -130 0
-236 -131 0
-237 -132 0
-304 -130 0
-305 -131 0
-306 -132 0
-307 -130 0
-308 -131 0
-309 -132 0
-328 -130 0
-329 -131 0
-330 -132 0
-334 -130 0
-335 -131 0
-336 -132 0
-382 -130 0
-383 -131 0
-384 -132 0
-388 -133 0
-389 -134 0
-390 -135 0
-577 -133 0
-578 -134 0
-579 -135 0
-307 -136 0
-308 -137 0
-309 -138 0
-502 -136 0
-503 -137 0
-504 -138 0
-523 -136 0
-524 -137 0
-525 -138 0
-196 -139 0
-197 -140 0
-198 -141 0
-250 -139 0
-251 -140 0
-252 -141 0
-541 -139 0
-542 -140 0
-543 -141 0
-277 -142 0
-278 -143 0
-279 -144 0
-460 -142 0
-461 -143 0
-462 -144 0
-397 -145 0
-398 -146 0
-399 -147 0
-532 -145 0
-533 -146 0
-534 -147 0
-559 -145 0
-560 -146 0
-561 -147 0
-394 -148 0
-395 -149 0
-396 -150 0
-397 -148 0
-398 -149 0
-399 -150 0
-367 -151 0
-368 -152 0
-369 -153 0
-397 -151 0
-398 -152 0
-399 -153 0
-571 -151 0
-572 -152 0
-573 -153 0
-580 -151 0
-581 -152 0
-582 -153 0
-475 -154 0
-476 -155 0
-477 -156 0
-262 -157 0
-263 -158 0
-264 -159 0
-391 -157 0
-392 -158 0
-393 -159 0
-484 -157 0
-485 -158 0
-486 -159 0
-550 -157 0
-551 -158 0
-552 -159 0
-565 -157 0
-566 -158 0
-567 -159 0
-187 -160 0
-188 -161 0
-189 -162 0
-367 -160 0
-368 -161 0
-369 -162 0
-556 -160 0
-557 -161 0
-558 -162 0
-178 -163 0
-179 -164 0
-180 -165 0
-322 -163 0
-323 -164 0
-324 -165 0
-391 -163 0
-392 -164 0
-393 -165 0
-565 -163 0
-566 -164 0
-567 -165 0
-481 -166 0
-482 -167 0
-483 -168 0
-304 -169 0
-305 -170 0
-306 -171 0
-481 -169 0
-482 -170 0
-483 -171 0
-535 -169 0
-536 -170 0
-537 -171 0
-496 -172 0
-497 -173 0
-498 -174 0
-214 -175 0
-215 -176 0
-216 -177 0
-388 -175 0
-389 -176 0
-390 -177 0
-445 -175 0
-446 -176 0
-447 -177 0
-523 -175 0
-524 -176 0
-525 -177 0
-553 -175 0
-554 -176 0
-555 -177 0
-595 -175 0
-596 -176 0
-597 -177 0
-214 -178 0
-215 -179 0
-216 -180 0
-358 -178 0
-359 -179 0
-360 -180 0
-448 -178 0
-449 -179 0
-450 -180 0
-469 -178 0
-470 -179 0
-471 -180 0
-568 -178 0
-569 -179 0
-570 -180 0
-253 -181 0
-254 -182 0
-255 -183 0
-424 -181 0
-425 -182 0
-426 -183 0
-472 -181 0
-473 -182 0
-474 -183 0
-301 -184 0
-302 -185 0
-303 -186 0
-484 -184 0
-485 -185 0
-486 -186 0
-502 -184 0
-503 -185 0
-504 -186 0
-544 -184 0
-545 -185 0
-546 -186 0
-598 -184 0
-599 -185 0
-600 -186 0
-499 -187 0
-500 -188 0
-501 -189 0
-511 -187 0
-512 -188 0
-513 -189 0
-523 -187 0
-524 -188 0
-525 -189 0
-274 -190 0
-275 -191 0
-276 -192 0
-430 -190 0
-431 -191 0
-432 -192 0
-457 -190 0
-458 -191 0
-459 -192 0
-463 -190 0
-464 -191 0
-465 -192 0
-256 -193 0
-257 -194 0
-258 -195 0
-364 -193 0
-365 -194 0
-366 -195 0
-403 -193 0
-404 -194 0
-405 -195 0
-496 -193 0
-497 -194 0
-498 -195 0
-226 -196 0
-227 -197 0
-228 -198 0
-400 -196 0
-401 -197 0
-402 -198 0
-460 -196 0
-461 -197 0
-462 -198 0
-595 -196 0
-596 -197 0
-597 -198 0
-406 -199 0
-407 -200 0
-408 -201 0
-418 -199 0
-419 -200 0
-420 -201 0
-526 -199 0
-527 -200 0
-528 -201 0
-547 -199 0
-548 -200 0
-549 -201 0
-586 -199 0
-587 -200 0
-588 -201 0
-319 -202 0
-320 -203 0
-321 -204 0
-385 -202 0
-386 -203 0
-387 -204 0
-598 -202 0
-599 -203 0
-600 -204 0
-208 -205 0
-209 -206 0
-210 -207 0
-262 -205 0
-263 -206 0
-264 -207 0
-271 -205 0
-272 -206 0
-273 -207 0
-322 -205 0
-323 -206 0
-324 -207 0
-325 -205 0
-326 -206 0
-327 -207 0
-301 -208 0
-302 -209 0
-303 -210 0
-394 -208 0
-395 -209 0
-396 -210 0
-421 -208 0
-422 -209 0
-423 -210 0
-544 -208 0
-545 -209 0
-546 -210 0
-274 -211 0
-275 -212 0
-276 -213 0
-427 -211 0
-428 -212 0
-429 -213 0
-271 -214 0
-272 -215 0
-273 -216 0
-463 -214 0
-464 -215 0
-465 -216 0
-487 -214 0
-488 -215 0
-489 -216 0
-238 -217 0
-239 -218 0
-240 -219 0
-253 -217 0
-254 -218 0
-255 -219 0
-400 -217 0
-401 -218 0
-402 -219 0
-514 -220 0
-515 -221 0
-516 -222 0
-553 -220 0
-554 -221 0
-555 -222 0
-592 -220 0
-593 -221 0
-594 -222 0
-340 -223 0
-341 -224 0
-342 -225 0
-532 -223 0
-533 -224 0
-534 -225 0
-586 -223 0
-587 -224 0
-588 -225 0
-250 -226 0
-251 -227 0
-252 -228 0
-388 -226 0
-389 -227 0
-390 -228 0
-553 -226 0
-554 -227 0
-555 -228 0
-397 -229 0
-398 -230 0
-399 -231 0
-586 -229 0
-587 -230 0
-588 -231 0
-343 -232 0
-344 -233 0
-345 -234 0
-349 -232 0
-350 -233 0
-351 -234 0
-361 -232 0
-362 -233 0
-363 -234 0
-547 -232 0
-548 -233 0
-549 -234 0
-247 -235 0
-248 -236 0
-249 -237 0
-322 -238 0
-323 -239 0
-324 -240 0
-283 -241 0
-284 -242 0
-285 -243 0
-343 -241 0
-344 -242 0
-345 -243 0
-475 -241 0
-476 -242 0
-477 -243 0
-511 -241 0
-512 -242 0
-513 -243 0
-274 -244 0
-275 -245 0
-276 -246 0
-295 -244 0
-296 -245 0
-297 -246 0
-439 -244 0
-440 -245 0
-441 -246 0
-571 -244 0
-572 -245 0
-573 -246 0
-376 -247 0
-377 -248 0
-378 -249 0
-283 -250 0
-284 -251 0
-285 -252 0
-343 -250 0
-344 -251 0
-345 -252 0
-346 -250 0
-347 -251 0
-348 -252 0
-532 -250 0
-533 -251 0
-534 -252 0
-550 -250 0
-551 -251 0
-552 -252 0
-388 -253 0
-389 -254 0
-390 -255 0
-277 -256 0
-278 -257 0
-279 -258 0
-592 -256 0
-593 -257 0
-594 -258 0
-388 -259 0
-389 -260 0
-390 -261 0
-577 -259 0
-578 -260 0
-579 -261 0
-298 -262 0
-299 -263 0
-300 -264 0
-556 -262 0
-557 -263 0
-558 -264 0
-433 -265 0
-434 -266 0
-435 -267 0
-520 -265 0
-521 -266 0
-522 -267 0
-586 -265 0
-587 -266 0
-588 -267 0
-271 -268 0
-272 -269 0
-273 -270 0
-448 -268 0
-449 -269 0
-450 -270 0
-580 -268 0
-581 -269 0
-582 -270 0
-589 -268 0
-590 -269 0
-591 -270 0
-283 -271 0
-284 -272 0
-285 -273 0
-571 -271 0
-572 -272 0
-573 -273 0
-550 -274 0
-551 -275 0
-552 -276 0
-307 -277 0
-308 -278 0
-309 -279 0
-379 -277 0
-380 -278 0
-381 -279 0
-463 -277 0
-464 -278 0
-465 -279 0
-481 -277 0
-482 -278 0
-483 -279 0
-499 -280 0
-500 -281 0
-501 -282 0
-520 -280 0
-521 -281 0
-522 -282 0
-343 -283 0
-344 -284 0
-345 -285 0
-496 -283 0
-497 -284 0
-498 -285 0
-598 -283 0
-599 -284 0
-600 -285 0
-355 -286 0
-356 -287 0
-357 -288 0
-505 -286 0
-506 -287 0
-507 -288 0
-508 -286 0
-509 -287 0
-510 -288 0
-334 -289 0
-335 -290 0
-336 -291 0
-358 -289 0
-359 -290 0
-360 -291 0
-400 -289 0
-401 -290 0
-402 -291 0
-424 -289 0
-425 -290 0
-426 -291 0
-514 -289 0
-515 -290 0
-516 -291 0
-538 -292 0
-539 -293 0
-540 -294 0
-310 -295 0
-311 -296 0
-312 -297 0
-439 -295 0
-440 -296 0
-441 -297 0
-460 -295 0
-461 -296 0
-462 -297 0
-382 -298 0
-383 -299 0
-384 -300 0
-385 -298 0
-386 -299 0
-387 -300 0
-433 -298 0
-434 -299 0
-435 -300 0
-316 -301 0
-317 -302 0
-318 -303 0
-553 -301 0
-554 -302 0
-555 -303 0
-472 -304 0
-473 -305 0
-474 -306 0
-484 -304 0
-485 -305 0
-486 -306 0
-502 -304 0
-503 -305 0
-504 -306 0
-583 -304 0
-584 -305 0
-585 -306 0
-316 -307 0
-317 -308 0
-318 -309 0
-454 -307 0
-455 -308 0
-456 -309 0
-484 -307 0
-485 -308 0
-486 -309 0
-490 -307 0
-491 -308 0
-492 -309 0
-574 -307 0
-575 -308 0
-576 -309 0
-361 -310 0
-362 -311 0
-363 -312 0
-547 -310 0
-548 -311 0
-549 -312 0
-574 -310 0
-575 -311 0
-576 -312 0
-550 -313 0
-551 -314 0
-552 -315 0
-337 -316 0
-338 -317 0
-339 -318 0
-355 -316 0
-356 -317 0
-357 -318 0
-418 -316 0
-419 -317 0
-420 -318 0
-334 -319 0
-335 -320 0
-336 -321 0
-472 -319 0
-473 -320 0
-474 -321 0
-466 -325 0
-467 -326 0
-468 -327 0
-535 -325 0
-536 -326 0
-537 -327 0
-346 -328 0
-347 -329 0
-348 -330 0
-400 -331 0
-401 -332 0
-402 -333 0
-421 -331 0
-422 -332 0
-423 -333 0
-547 -331 0
-548 -332 0
-549 -333 0
-421 -334 0
-422 -335 0
-423 -336 0
-457 -334 0
-458 -335 0
-459 -336 0
-463 -334 0
-464 -335 0
-465 -336 0
-406 -337 0
-407 -338 0
-408 -339 0
-409 -337 0
-410 -338 0
-411 -339 0
-493 -340 0
-494 -341 0
-495 -342 0
-586 -343 0
-587 -344 0
-588 -345 0
-397 -346 0
-398 -347 0
-399 -348 0
-424 -346 0
-425 -347 0
-426 -348 0
-439 -346 0
-440 -347 0
-441 -348 0
-481 -346 0
-482 -347 0
-483 -348 0
-556 -346 0
-557 -347 0
-558 -348 0
-433 -349 0
-434 -350 0
-435 -351 0
-475 -349 0
-476 -350 0
-477 -351 0
-532 -349 0
-533 -350 0
-534 -351 0
-538 -349 0
-539 -350 0
-540 -351 0
-367 -352 0
-368 -353 0
-369 -354 0
-433 -352 0
-434 -353 0
-435 -354 0
-379 -355 0
-380 -356 0
-381 -357 0
-556 -355 0
-557 -356 0
-558 -357 0
-364 -358 0
-365 -359 0
-366 -360 0
-448 -358 0
-449 -359 0
-450 -360 0
-454 -358 0
-455 -359 0
-456 -360 0
-394 -367 0
-395 -368 0
-396 -369 0
-535 -370 0
-536 -371 0
-537 -372 0
-568 -370 0
-569 -371 0
-570 -372 0
-589 -370 0
-590 -371 0
-591 -372 0
-499 -373 0
-500 -374 0
-501 -375 0
-511 -373 0
-512 -374 0
-513 -375 0
-589 -373 0
-590 -374 0
-591 -375 0
-598 -373 0
-599 -374 0
-600 -375 0
-466 -382 0
-467 -383 0
-468 -384 0
-484 -382 0
-485 -383 0
-486 -384 0
-529 -382 0
-530 -383 0
-531 -384 0
-523 -385 0
-524 -386 0
-525 -387 0
-535 -385 0
-536 -386 0
-537 -387 0
-508 -388 0
-509 -389 0
-510 -390 0
-541 -388 0
-542 -389 0
-543 -390 0
-421 -391 0
-422 -392 0
-423 -393 0
-415 -394 0
-416 -395 0
-417 -396 0
-442 -394 0
-443 -395 0
-444 -396 0
-499 -400 0
-500 -401 0
-501 -402 0
-556 -400 0
-557 -401 0
-558 -402 0
-568 -400 0
-569 -401 0
-570 -402 0
-571 -400 0
-572 -401 0
-573 -402 0
-505 -403 0
-506 -404 0
-507 -405 0
-544 -403 0
-545 -404 0
-546 -405 0
-589 -403 0
-590 -404 0
-591 -405 0
-592 -403 0
-593 -404 0
-594 -405 0
-529 -406 0
-530 -407 0
-531 -408 0
-514 -412 0
-515 -413 0
-516 -414 0
-535 -412 0
-536 -413 0
-537 -414 0
-454 -418 0
-455 -419 0
-456 -420 0
-475 -418 0
-476 -419 0
-477 -420 0
-562 -418 0
-563 -419 0
-564 -420 0
-436 -424 0
-437 -425 0
-438 -426 0
-448 -424 0
-449 -425 0
-450 -426 0
-448 -427 0
-449 -428 0
-450 -429 0
-550 -427 0
-551 -428 0
-552 -429 0
-475 -433 0
-476 -434 0
-477 -435 0
-439 -436 0
-440 -437 0
-441 -438 0
-580 -436 0
-581 -437 0
-582 -438 0
-529 -439 0
-530 -440 0
-531 -441 0
-526 -442 0
-527 -443 0
-528 -444 0
-517 -445 0
-518 -446 0
-519 -447 0
-583 -445 0
-584 -446 0
-585 -447 0
-595 -448 0
-596 -449 0
-597 -450 0
-541 -454 0
-542 -455 0
-543 -456 0
-475 -457 0
-476 -458 0
-477 -459 0
-481 -457 0
-482 -458 0
-483 -459 0
-550 -457 0
-551 -458 0
-552 -459 0
-565 -457 0
-566 -458 0
-567 -459 0
-538 -463 0
-539 -464 0
-540 -465 0
-595 -463 0
-596 -464 0
-597 -465 0
-529 -466 0
-530 -467 0
-531 -468 0
-598 -466 0
-599 -467 0
-600 -468 0
-490 -475 0
-491 -476 0
-492 -477 0
-556 -475 0
-557 -476 0
-558 -477 0
-484 -481 0
-485 -482 0
-486 -483 0
-496 -481 0
-497 -482 0
-498 -483 0
-568 -490 0
-569 -491 0
-570 -492 0
-595 -496 0
-596 -497 0
-597 -498 0
-562 -508 0
-563 -509 0
-564 -510 0
-580 -511 0
-581 -512 0
-582 -513 0
-580 -517 0
-581 -518 0
-582 -519 0
-568 -520 0
-569 -521 0
-570 -522 0
-589 -520 0
-590 -521 0
-591 -522 0
-592 -520 0
-593 -521 0
-594 -522 0
-532 -526 0
-533 -527 0
-534 -528 0
-535 -526 0
-536 -527 0
-537 -528 0
-577 -529 0
-578 -530 0
-579 -531 0
-598 -544 0
-599 -545 0
-600 -546 0
-580 -556 0
-581 -557 0
-582 -558 0
-574 -559 0
-575 -560 0
-576 -561 0
